Route 1: 0 20 100 25 58 97 8 42 48 40 10 33 75 0
Route 2: 0 92 34 6 16 82 83 11 45 0
Route 3: 0 57 9 77 21 87 99 4 35 0
Route 4: 0 46 32 91 47 84 79 80 96 0
Route 5: 0 26 81 73 68 14 61 51 19 59 28 39 0
Route 6: 0 18 66 27 15 49 56 44 50 37 85 5 60 0
Route 7: 0 78 71 17 69 3 65 12 0
Route 8: 0 13 30 88 23 90 86 62 1 72 53 98 0
Route 9: 0 89 24 29 76 38 70 0
Route 10: 0 52 74 7 64 95 67 36 54 2 0
Route 11: 0 43 93 41 55 22 94 31 0
Route 12: 0 63 0
